NAME          
ROWS
 N  OBJ
 L  c2
 L  c3
 L  c4
 L  c5
 L  c6
 L  c7
 L  c8
 L  c9
 L  c10
 L  c11
 G  c1
COLUMNS
    ss[1]     c1        1
    ss[1]     OBJ       1000
    s[1]      c2        1
    s[1]      OBJ       -1000
    s[2]      c3        1
    s[2]      OBJ       -1000
    s[3]      c4        1
    s[3]      OBJ       -1000
    s[4]      c5        1
    s[4]      OBJ       -1000
    s[5]      c6        1
    s[5]      OBJ       -1000
    s[6]      c7        1
    s[6]      OBJ       -1000
    s[7]      c8        1
    s[7]      OBJ       -1000
    s[8]      c9        1
    s[8]      OBJ       -1000
    s[9]      c10       1
    s[9]      OBJ       -1000
    s[10]     c11       1
    s[10]     OBJ       -1000
    MARKER    'MARKER'                 'INTORG'
    x[1]      c2        812
    x[1]      c3        692
    x[1]      c4        523
    x[1]      c5        24
    x[1]      c6        31
    x[1]      c7        365
    x[1]      c8        35
    x[1]      c9        379
    x[1]      c10       614
    x[1]      c11       760
    x[1]      c1        556
    x[1]      OBJ       -701
    x[2]      c2        823
    x[2]      c3        326
    x[2]      c4        62
    x[2]      c5        980
    x[2]      c6        195
    x[2]      c7        848
    x[2]      c8        800
    x[2]      c9        525
    x[2]      c10       188
    x[2]      c11       391
    x[2]      c1        736
    x[2]      OBJ       -591
    x[3]      c2        11
    x[3]      c3        865
    x[3]      c4        968
    x[3]      c5        777
    x[3]      c6        753
    x[3]      c7        960
    x[3]      c8        622
    x[3]      c9        653
    x[3]      c10       230
    x[3]      c11       244
    x[3]      c1        301
    x[3]      OBJ       -1153
    x[4]      c2        101
    x[4]      c3        632
    x[4]      c4        286
    x[4]      c5        855
    x[4]      c6        258
    x[4]      c7        107
    x[4]      c8        334
    x[4]      c9        170
    x[4]      c10       606
    x[4]      c11       531
    x[4]      c1        111
    x[4]      OBJ       -963
    x[5]      c2        635
    x[5]      c3        579
    x[5]      c4        502
    x[5]      c5        775
    x[5]      c6        505
    x[5]      c7        516
    x[5]      c8        837
    x[5]      c9        117
    x[5]      c10       743
    x[5]      c11       415
    x[5]      c1        704
    x[5]      OBJ       -813
    x[6]      c2        908
    x[6]      c3        751
    x[6]      c4        399
    x[6]      c5        137
    x[6]      c6        428
    x[6]      c7        180
    x[6]      c8        145
    x[6]      c9        247
    x[6]      c10       614
    x[6]      c11       406
    x[6]      c1        408
    x[6]      OBJ       -954
    x[7]      c2        472
    x[7]      c3        793
    x[7]      c4        587
    x[7]      c5        52
    x[7]      c6        369
    x[7]      c7        328
    x[7]      c8        121
    x[7]      c9        970
    x[7]      c10       765
    x[7]      c11       539
    x[7]      c1        163
    x[7]      OBJ       -1255
    x[8]      c2        614
    x[8]      c3        929
    x[8]      c4        199
    x[8]      c5        301
    x[8]      c6        620
    x[8]      c7        910
    x[8]      c8        617
    x[8]      c9        328
    x[8]      c10       269
    x[8]      c11       104
    x[8]      c1        315
    x[8]      OBJ       -988
    x[9]      c2        501
    x[9]      c3        425
    x[9]      c4        648
    x[9]      c5        81
    x[9]      c6        10
    x[9]      c7        417
    x[9]      c8        66
    x[9]      c9        150
    x[9]      c10       944
    x[9]      c11       904
    x[9]      c1        670
    x[9]      OBJ       -791
    x[10]     c2        804
    x[10]     c3        303
    x[10]     c4        249
    x[10]     c5        905
    x[10]     c6        48
    x[10]     c7        526
    x[10]     c8        114
    x[10]     c9        394
    x[10]     c10       360
    x[10]     c11       512
    x[10]     c1        457
    x[10]     OBJ       -603
    x[11]     c2        187
    x[11]     c3        531
    x[11]     c4        352
    x[11]     c5        342
    x[11]     c6        464
    x[11]     c7        693
    x[11]     c8        250
    x[11]     c9        957
    x[11]     c10       158
    x[11]     c11       741
    x[11]     c1        357
    x[11]     OBJ       -1124
    x[12]     c2        987
    x[12]     c3        933
    x[12]     c4        268
    x[12]     c5        992
    x[12]     c6        889
    x[12]     c7        105
    x[12]     c8        771
    x[12]     c9        975
    x[12]     c10       186
    x[12]     c11       918
    x[12]     c1        916
    x[12]     OBJ       -789
    x[13]     c2        82
    x[13]     c3        234
    x[13]     c4        612
    x[13]     c5        168
    x[13]     c6        838
    x[13]     c7        819
    x[13]     c8        548
    x[13]     c9        836
    x[13]     c10       7
    x[13]     c11       99
    x[13]     c1        614
    x[13]     OBJ       -836
    x[14]     c2        74
    x[14]     c3        84
    x[14]     c4        904
    x[14]     c5        254
    x[14]     c6        106
    x[14]     c7        275
    x[14]     c8        565
    x[14]     c9        862
    x[14]     c10       746
    x[14]     c11       63
    x[14]     c1        60
    x[14]     OBJ       -1026
    x[15]     c2        336
    x[15]     c3        131
    x[15]     c4        293
    x[15]     c5        638
    x[15]     c6        587
    x[15]     c7        310
    x[15]     c8        644
    x[15]     c9        699
    x[15]     c10       57
    x[15]     c11       501
    x[15]     c1        373
    x[15]     OBJ       -990
    x[16]     c2        512
    x[16]     c3        408
    x[16]     c4        872
    x[16]     c5        534
    x[16]     c6        282
    x[16]     c7        951
    x[16]     c8        408
    x[16]     c9        57
    x[16]     c10       308
    x[16]     c11       703
    x[16]     c1        182
    x[16]     OBJ       -1272
    x[17]     c2        572
    x[17]     c3        852
    x[17]     c4        396
    x[17]     c5        661
    x[17]     c6        424
    x[17]     c7        811
    x[17]     c8        819
    x[17]     c9        964
    x[17]     c10       722
    x[17]     c11       934
    x[17]     c1        129
    x[17]     OBJ       -1262
    x[18]     c2        818
    x[18]     c3        913
    x[18]     c4        500
    x[18]     c5        726
    x[18]     c6        771
    x[18]     c7        590
    x[18]     c8        330
    x[18]     c9        921
    x[18]     c10       359
    x[18]     c11       349
    x[18]     c1        767
    x[18]     OBJ       -504
    x[19]     c2        599
    x[19]     c3        288
    x[19]     c4        186
    x[19]     c5        129
    x[19]     c6        958
    x[19]     c7        995
    x[19]     c8        411
    x[19]     c9        835
    x[19]     c10       687
    x[19]     c11       213
    x[19]     c1        896
    x[19]     OBJ       -414
    x[20]     c2        792
    x[20]     c3        419
    x[20]     c4        629
    x[20]     c5        541
    x[20]     c6        475
    x[20]     c7        536
    x[20]     c8        423
    x[20]     c9        7
    x[20]     c10       309
    x[20]     c11       210
    x[20]     c1        178
    x[20]     OBJ       -997
    x[21]     c2        926
    x[21]     c3        23
    x[21]     c4        982
    x[21]     c5        618
    x[21]     c6        112
    x[21]     c7        916
    x[21]     c8        143
    x[21]     c9        242
    x[21]     c10       301
    x[21]     c11       151
    x[21]     c1        975
    x[21]     OBJ       -127
    x[22]     c2        660
    x[22]     c3        507
    x[22]     c4        626
    x[22]     c5        658
    x[22]     c6        100
    x[22]     c7        730
    x[22]     c8        332
    x[22]     c9        994
    x[22]     c10       813
    x[22]     c11       430
    x[22]     c1        226
    x[22]     OBJ       -1312
    x[23]     c2        270
    x[23]     c3        477
    x[23]     c4        529
    x[23]     c5        962
    x[23]     c6        56
    x[23]     c7        341
    x[23]     c8        538
    x[23]     c9        810
    x[23]     c10       817
    x[23]     c11       531
    x[23]     c1        404
    x[23]     OBJ       -1196
    x[24]     c2        465
    x[24]     c3        623
    x[24]     c4        554
    x[24]     c5        847
    x[24]     c6        608
    x[24]     c7        652
    x[24]     c8        112
    x[24]     c9        423
    x[24]     c10       369
    x[24]     c11       605
    x[24]     c1        833
    x[24]     OBJ       -644
    x[25]     c2        296
    x[25]     c3        272
    x[25]     c4        593
    x[25]     c5        470
    x[25]     c6        1000
    x[25]     c7        911
    x[25]     c8        627
    x[25]     c9        1000
    x[25]     c10       268
    x[25]     c11       368
    x[25]     c1        575
    x[25]     OBJ       -633
    x[26]     c2        12
    x[26]     c3        750
    x[26]     c4        544
    x[26]     c5        897
    x[26]     c6        584
    x[26]     c7        746
    x[26]     c8        977
    x[26]     c9        840
    x[26]     c10       510
    x[26]     c11       793
    x[26]     c1        340
    x[26]     OBJ       -983
    x[27]     c2        373
    x[27]     c3        411
    x[27]     c4        123
    x[27]     c5        525
    x[27]     c6        32
    x[27]     c7        742
    x[27]     c8        964
    x[27]     c9        327
    x[27]     c10       632
    x[27]     c11       130
    x[27]     c1        321
    x[27]     OBJ       -770
    x[28]     c2        787
    x[28]     c3        895
    x[28]     c4        396
    x[28]     c5        775
    x[28]     c6        935
    x[28]     c7        462
    x[28]     c8        677
    x[28]     c9        340
    x[28]     c10       701
    x[28]     c11       84
    x[28]     c1        580
    x[28]     OBJ       -1041
    x[29]     c2        4
    x[29]     c3        229
    x[29]     c4        971
    x[29]     c5        703
    x[29]     c6        245
    x[29]     c7        996
    x[29]     c8        702
    x[29]     c9        743
    x[29]     c10       14
    x[29]     c11       254
    x[29]     c1        425
    x[29]     OBJ       -738
    x[30]     c2        674
    x[30]     c3        53
    x[30]     c4        947
    x[30]     c5        426
    x[30]     c6        797
    x[30]     c7        562
    x[30]     c8        300
    x[30]     c9        240
    x[30]     c10       416
    x[30]     c11       922
    x[30]     c1        955
    x[30]     OBJ       -471
    x[31]     c2        509
    x[31]     c3        503
    x[31]     c4        977
    x[31]     c5        758
    x[31]     c6        439
    x[31]     c7        975
    x[31]     c8        961
    x[31]     c9        563
    x[31]     c10       583
    x[31]     c11       399
    x[31]     c1        739
    x[31]     OBJ       -960
    x[32]     c2        423
    x[32]     c3        273
    x[32]     c4        702
    x[32]     c5        520
    x[32]     c6        105
    x[32]     c7        529
    x[32]     c8        130
    x[32]     c9        736
    x[32]     c10       418
    x[32]     c11       151
    x[32]     c1        473
    x[32]     OBJ       -684
    x[33]     c2        326
    x[33]     c3        8
    x[33]     c4        576
    x[33]     c5        425
    x[33]     c6        230
    x[33]     c7        616
    x[33]     c8        288
    x[33]     c9        358
    x[33]     c10       503
    x[33]     c11       703
    x[33]     c1        946
    x[33]     OBJ       -108
    x[34]     c2        361
    x[34]     c3        852
    x[34]     c4        113
    x[34]     c5        51
    x[34]     c6        790
    x[34]     c7        770
    x[34]     c8        722
    x[34]     c9        31
    x[34]     c10       468
    x[34]     c11       793
    x[34]     c1        666
    x[34]     OBJ       -663
    x[35]     c2        664
    x[35]     c3        868
    x[35]     c4        591
    x[35]     c5        965
    x[35]     c6        2
    x[35]     c7        278
    x[35]     c8        540
    x[35]     c9        878
    x[35]     c10       194
    x[35]     c11       442
    x[35]     c1        630
    x[35]     OBJ       -936
    x[36]     c2        527
    x[36]     c3        564
    x[36]     c4        856
    x[36]     c5        66
    x[36]     c6        792
    x[36]     c7        723
    x[36]     c8        540
    x[36]     c9        177
    x[36]     c10       935
    x[36]     c11       445
    x[36]     c1        462
    x[36]     OBJ       -794
    x[37]     c2        813
    x[37]     c3        860
    x[37]     c4        570
    x[37]     c5        360
    x[37]     c6        325
    x[37]     c7        1
    x[37]     c8        951
    x[37]     c9        109
    x[37]     c10       620
    x[37]     c11       422
    x[37]     c1        841
    x[37]     OBJ       -597
    x[38]     c2        914
    x[38]     c3        749
    x[38]     c4        246
    x[38]     c5        789
    x[38]     c6        993
    x[38]     c7        77
    x[38]     c8        662
    x[38]     c9        293
    x[38]     c10       721
    x[38]     c11       73
    x[38]     c1        2
    x[38]     OBJ       -1338
    x[39]     c2        534
    x[39]     c3        865
    x[39]     c4        840
    x[39]     c5        862
    x[39]     c6        718
    x[39]     c7        348
    x[39]     c8        255
    x[39]     c9        122
    x[39]     c10       846
    x[39]     c11       225
    x[39]     c1        778
    x[39]     OBJ       -813
    x[40]     c2        441
    x[40]     c3        143
    x[40]     c4        113
    x[40]     c5        876
    x[40]     c6        848
    x[40]     c7        771
    x[40]     c8        858
    x[40]     c9        519
    x[40]     c10       127
    x[40]     c11       563
    x[40]     c1        714
    x[40]     OBJ       -544
    x[41]     c2        19
    x[41]     c3        337
    x[41]     c4        875
    x[41]     c5        183
    x[41]     c6        272
    x[41]     c7        186
    x[41]     c8        568
    x[41]     c9        632
    x[41]     c10       828
    x[41]     c11       505
    x[41]     c1        855
    x[41]     OBJ       -296
    x[42]     c2        758
    x[42]     c3        516
    x[42]     c4        167
    x[42]     c5        347
    x[42]     c6        209
    x[42]     c7        37
    x[42]     c8        869
    x[42]     c9        750
    x[42]     c10       390
    x[42]     c11       880
    x[42]     c1        768
    x[42]     OBJ       -399
    x[43]     c2        110
    x[43]     c3        161
    x[43]     c4        241
    x[43]     c5        369
    x[43]     c6        194
    x[43]     c7        296
    x[43]     c8        398
    x[43]     c9        737
    x[43]     c10       734
    x[43]     c11       723
    x[43]     c1        141
    x[43]     OBJ       -903
    x[44]     c2        475
    x[44]     c3        989
    x[44]     c4        317
    x[44]     c5        440
    x[44]     c6        677
    x[44]     c7        396
    x[44]     c8        743
    x[44]     c9        449
    x[44]     c10       592
    x[44]     c11       547
    x[44]     c1        847
    x[44]     OBJ       -593
    x[45]     c2        758
    x[45]     c3        951
    x[45]     c4        148
    x[45]     c5        878
    x[45]     c6        527
    x[45]     c7        831
    x[45]     c8        516
    x[45]     c9        500
    x[45]     c10       611
    x[45]     c11       13
    x[45]     c1        325
    x[45]     OBJ       -1074
    x[46]     c2        934
    x[46]     c3        619
    x[46]     c4        143
    x[46]     c5        110
    x[46]     c6        284
    x[46]     c7        292
    x[46]     c8        866
    x[46]     c9        200
    x[46]     c10       41
    x[46]     c11       840
    x[46]     c1        765
    x[46]     OBJ       -458
    x[47]     c2        439
    x[47]     c3        717
    x[47]     c4        967
    x[47]     c5        854
    x[47]     c6        770
    x[47]     c7        662
    x[47]     c8        187
    x[47]     c9        845
    x[47]     c10       184
    x[47]     c11       825
    x[47]     c1        10
    x[47]     OBJ       -1630
    x[48]     c2        646
    x[48]     c3        705
    x[48]     c4        644
    x[48]     c5        865
    x[48]     c6        8
    x[48]     c7        735
    x[48]     c8        898
    x[48]     c9        667
    x[48]     c10       687
    x[48]     c11       84
    x[48]     c1        162
    x[48]     OBJ       -1311
    x[49]     c2        220
    x[49]     c3        716
    x[49]     c4        515
    x[49]     c5        973
    x[49]     c6        307
    x[49]     c7        888
    x[49]     c8        831
    x[49]     c9        692
    x[49]     c10       278
    x[49]     c11       942
    x[49]     c1        208
    x[49]     OBJ       -1237
    x[50]     c2        627
    x[50]     c3        861
    x[50]     c4        252
    x[50]     c5        931
    x[50]     c6        138
    x[50]     c7        755
    x[50]     c8        527
    x[50]     c9        663
    x[50]     c10       858
    x[50]     c11       178
    x[50]     c1        981
    x[50]     OBJ       -688
    x[51]     c2        969
    x[51]     c3        593
    x[51]     c4        64
    x[51]     c5        790
    x[51]     c6        890
    x[51]     c7        916
    x[51]     c8        278
    x[51]     c9        19
    x[51]     c10       284
    x[51]     c11       677
    x[51]     c1        638
    x[51]     OBJ       -637
    x[52]     c2        299
    x[52]     c3        883
    x[52]     c4        768
    x[52]     c5        581
    x[52]     c6        753
    x[52]     c7        243
    x[52]     c8        372
    x[52]     c9        160
    x[52]     c10       947
    x[52]     c11       13
    x[52]     c1        184
    x[52]     OBJ       -1055
    x[53]     c2        993
    x[53]     c3        406
    x[53]     c4        901
    x[53]     c5        556
    x[53]     c6        899
    x[53]     c7        365
    x[53]     c8        250
    x[53]     c9        312
    x[53]     c10       30
    x[53]     c11       88
    x[53]     c1        124
    x[53]     OBJ       -1058
    x[54]     c2        148
    x[54]     c3        195
    x[54]     c4        441
    x[54]     c5        535
    x[54]     c6        970
    x[54]     c7        411
    x[54]     c8        728
    x[54]     c9        343
    x[54]     c10       95
    x[54]     c11       742
    x[54]     c1        910
    x[54]     OBJ       -251
    x[55]     c2        742
    x[55]     c3        129
    x[55]     c4        883
    x[55]     c5        786
    x[55]     c6        525
    x[55]     c7        714
    x[55]     c8        706
    x[55]     c9        278
    x[55]     c10       471
    x[55]     c11       232
    x[55]     c1        332
    x[55]     OBJ       -870
    x[56]     c2        22
    x[56]     c3        480
    x[56]     c4        516
    x[56]     c5        410
    x[56]     c6        691
    x[56]     c7        956
    x[56]     c8        863
    x[56]     c9        134
    x[56]     c10       368
    x[56]     c11       497
    x[56]     c1        634
    x[56]     OBJ       -543
    x[57]     c2        392
    x[57]     c3        687
    x[57]     c4        897
    x[57]     c5        542
    x[57]     c6        406
    x[57]     c7        933
    x[57]     c8        907
    x[57]     c9        754
    x[57]     c10       45
    x[57]     c11       452
    x[57]     c1        555
    x[57]     OBJ       -817
    x[58]     c2        979
    x[58]     c3        912
    x[58]     c4        163
    x[58]     c5        535
    x[58]     c6        444
    x[58]     c7        693
    x[58]     c8        375
    x[58]     c9        878
    x[58]     c10       470
    x[58]     c11       418
    x[58]     c1        55
    x[58]     OBJ       -1153
    x[59]     c2        311
    x[59]     c3        921
    x[59]     c4        782
    x[59]     c5        492
    x[59]     c6        864
    x[59]     c7        143
    x[59]     c8        73
    x[59]     c9        525
    x[59]     c10       899
    x[59]     c11       708
    x[59]     c1        396
    x[59]     OBJ       -946
    x[60]     c2        156
    x[60]     c3        420
    x[60]     c4        916
    x[60]     c5        426
    x[60]     c6        722
    x[60]     c7        363
    x[60]     c8        854
    x[60]     c9        23
    x[60]     c10       872
    x[60]     c11       609
    x[60]     c1        23
    x[60]     OBJ       -1383
    x[61]     c2        619
    x[61]     c3        803
    x[61]     c4        113
    x[61]     c5        873
    x[61]     c6        695
    x[61]     c7        847
    x[61]     c8        226
    x[61]     c9        472
    x[61]     c10       833
    x[61]     c11       76
    x[61]     c1        171
    x[61]     OBJ       -999
    x[62]     c2        143
    x[62]     c3        485
    x[62]     c4        571
    x[62]     c5        466
    x[62]     c6        414
    x[62]     c7        514
    x[62]     c8        622
    x[62]     c9        199
    x[62]     c10       164
    x[62]     c11       808
    x[62]     c1        310
    x[62]     OBJ       -868
    x[63]     c2        424
    x[63]     c3        111
    x[63]     c4        179
    x[63]     c5        704
    x[63]     c6        569
    x[63]     c7        196
    x[63]     c8        69
    x[63]     c9        724
    x[63]     c10       591
    x[63]     c11       310
    x[63]     c1        181
    x[63]     OBJ       -1101
    x[64]     c2        645
    x[64]     c3        839
    x[64]     c4        145
    x[64]     c5        102
    x[64]     c6        973
    x[64]     c7        747
    x[64]     c8        17
    x[64]     c9        601
    x[64]     c10       521
    x[64]     c11       764
    x[64]     c1        378
    x[64]     OBJ       -1080
    x[65]     c2        202
    x[65]     c3        515
    x[65]     c4        679
    x[65]     c5        790
    x[65]     c6        299
    x[65]     c7        933
    x[65]     c8        907
    x[65]     c9        744
    x[65]     c10       443
    x[65]     c11       549
    x[65]     c1        600
    x[65]     OBJ       -1043
    x[66]     c2        751
    x[66]     c3        436
    x[66]     c4        637
    x[66]     c5        611
    x[66]     c6        640
    x[66]     c7        593
    x[66]     c8        569
    x[66]     c9        334
    x[66]     c10       872
    x[66]     c11       774
    x[66]     c1        742
    x[66]     OBJ       -827
    x[67]     c2        500
    x[67]     c3        593
    x[67]     c4        170
    x[67]     c5        176
    x[67]     c6        135
    x[67]     c7        681
    x[67]     c8        91
    x[67]     c9        611
    x[67]     c10       749
    x[67]     c11       618
    x[67]     c1        275
    x[67]     OBJ       -1121
    x[68]     c2        570
    x[68]     c3        215
    x[68]     c4        121
    x[68]     c5        980
    x[68]     c6        971
    x[68]     c7        63
    x[68]     c8        629
    x[68]     c9        850
    x[68]     c10       857
    x[68]     c11       911
    x[68]     c1        601
    x[68]     OBJ       -772
    x[69]     c2        421
    x[69]     c3        959
    x[69]     c4        779
    x[69]     c5        656
    x[69]     c6        132
    x[69]     c7        876
    x[69]     c8        481
    x[69]     c9        864
    x[69]     c10       999
    x[69]     c11       103
    x[69]     c1        951
    x[69]     OBJ       -652
    x[70]     c2        587
    x[70]     c3        437
    x[70]     c4        244
    x[70]     c5        184
    x[70]     c6        686
    x[70]     c7        540
    x[70]     c8        175
    x[70]     c9        63
    x[70]     c10       855
    x[70]     c11       756
    x[70]     c1        731
    x[70]     OBJ       -484
    x[71]     c2        87
    x[71]     c3        998
    x[71]     c4        197
    x[71]     c5        714
    x[71]     c6        888
    x[71]     c7        649
    x[71]     c8        560
    x[71]     c9        649
    x[71]     c10       608
    x[71]     c11       459
    x[71]     c1        166
    x[71]     OBJ       -1479
    x[72]     c2        285
    x[72]     c3        395
    x[72]     c4        417
    x[72]     c5        353
    x[72]     c6        384
    x[72]     c7        491
    x[72]     c8        357
    x[72]     c9        574
    x[72]     c10       713
    x[72]     c11       429
    x[72]     c1        659
    x[72]     OBJ       -687
    x[73]     c2        234
    x[73]     c3        597
    x[73]     c4        534
    x[73]     c5        455
    x[73]     c6        291
    x[73]     c7        876
    x[73]     c8        657
    x[73]     c9        480
    x[73]     c10       241
    x[73]     c11       365
    x[73]     c1        15
    x[73]     OBJ       -1401
    x[74]     c2        58
    x[74]     c3        905
    x[74]     c4        364
    x[74]     c5        36
    x[74]     c6        856
    x[74]     c7        337
    x[74]     c8        461
    x[74]     c9        637
    x[74]     c10       13
    x[74]     c11       824
    x[74]     c1        230
    x[74]     OBJ       -1018
    x[75]     c2        189
    x[75]     c3        814
    x[75]     c4        717
    x[75]     c5        26
    x[75]     c6        309
    x[75]     c7        574
    x[75]     c8        624
    x[75]     c9        438
    x[75]     c10       970
    x[75]     c11       137
    x[75]     c1        577
    x[75]     OBJ       -525
    x[76]     c2        667
    x[76]     c3        755
    x[76]     c4        538
    x[76]     c5        948
    x[76]     c6        316
    x[76]     c7        10
    x[76]     c8        867
    x[76]     c9        227
    x[76]     c10       797
    x[76]     c11       973
    x[76]     c1        807
    x[76]     OBJ       -835
    x[77]     c2        949
    x[77]     c3        932
    x[77]     c4        301
    x[77]     c5        58
    x[77]     c6        368
    x[77]     c7        135
    x[77]     c8        746
    x[77]     c9        966
    x[77]     c10       540
    x[77]     c11       765
    x[77]     c1        420
    x[77]     OBJ       -1015
    x[78]     c2        818
    x[78]     c3        642
    x[78]     c4        877
    x[78]     c5        45
    x[78]     c6        403
    x[78]     c7        929
    x[78]     c8        97
    x[78]     c9        987
    x[78]     c10       368
    x[78]     c11       985
    x[78]     c1        862
    x[78]     OBJ       -728
    x[79]     c2        325
    x[79]     c3        425
    x[79]     c4        384
    x[79]     c5        15
    x[79]     c6        206
    x[79]     c7        20
    x[79]     c8        499
    x[79]     c9        755
    x[79]     c10       903
    x[79]     c11       129
    x[79]     c1        974
    x[79]     OBJ       -297
    x[80]     c2        978
    x[80]     c3        536
    x[80]     c4        932
    x[80]     c5        591
    x[80]     c6        983
    x[80]     c7        745
    x[80]     c8        205
    x[80]     c9        251
    x[80]     c10       231
    x[80]     c11       526
    x[80]     c1        991
    x[80]     OBJ       -660
    x[81]     c2        843
    x[81]     c3        911
    x[81]     c4        767
    x[81]     c5        470
    x[81]     c6        297
    x[81]     c7        851
    x[81]     c8        725
    x[81]     c9        767
    x[81]     c10       897
    x[81]     c11       967
    x[81]     c1        795
    x[81]     OBJ       -950
    x[82]     c2        340
    x[82]     c3        375
    x[82]     c4        186
    x[82]     c5        820
    x[82]     c6        421
    x[82]     c7        307
    x[82]     c8        238
    x[82]     c9        948
    x[82]     c10       365
    x[82]     c11       733
    x[82]     c1        938
    x[82]     OBJ       -188
    x[83]     c2        149
    x[83]     c3        592
    x[83]     c4        903
    x[83]     c5        351
    x[83]     c6        676
    x[83]     c7        759
    x[83]     c8        166
    x[83]     c9        258
    x[83]     c10       867
    x[83]     c11       434
    x[83]     c1        792
    x[83]     OBJ       -578
    x[84]     c2        411
    x[84]     c3        719
    x[84]     c4        165
    x[84]     c5        199
    x[84]     c6        879
    x[84]     c7        909
    x[84]     c8        23
    x[84]     c9        551
    x[84]     c10       286
    x[84]     c11       875
    x[84]     c1        647
    x[84]     OBJ       -770
    x[85]     c2        365
    x[85]     c3        162
    x[85]     c4        997
    x[85]     c5        600
    x[85]     c6        460
    x[85]     c7        727
    x[85]     c8        297
    x[85]     c9        782
    x[85]     c10       345
    x[85]     c11       38
    x[85]     c1        59
    x[85]     OBJ       -1305
    x[86]     c2        636
    x[86]     c3        609
    x[86]     c4        509
    x[86]     c5        599
    x[86]     c6        579
    x[86]     c7        646
    x[86]     c8        308
    x[86]     c9        316
    x[86]     c10       839
    x[86]     c11       555
    x[86]     c1        991
    x[86]     OBJ       -471
    x[87]     c2        164
    x[87]     c3        445
    x[87]     c4        320
    x[87]     c5        1000
    x[87]     c6        139
    x[87]     c7        588
    x[87]     c8        235
    x[87]     c9        197
    x[87]     c10       380
    x[87]     c11       701
    x[87]     c1        759
    x[87]     OBJ       -631
    x[88]     c2        206
    x[88]     c3        709
    x[88]     c4        88
    x[88]     c5        230
    x[88]     c6        813
    x[88]     c7        706
    x[88]     c8        556
    x[88]     c9        435
    x[88]     c10       331
    x[88]     c11       559
    x[88]     c1        627
    x[88]     OBJ       -673
    x[89]     c2        749
    x[89]     c3        838
    x[89]     c4        420
    x[89]     c5        772
    x[89]     c6        564
    x[89]     c7        984
    x[89]     c8        339
    x[89]     c9        390
    x[89]     c10       699
    x[89]     c11       240
    x[89]     c1        328
    x[89]     OBJ       -1178
    x[90]     c2        729
    x[90]     c3        791
    x[90]     c4        985
    x[90]     c5        321
    x[90]     c6        107
    x[90]     c7        824
    x[90]     c8        221
    x[90]     c9        242
    x[90]     c10       675
    x[90]     c11       416
    x[90]     c1        902
    x[90]     OBJ       -314
    x[91]     c2        306
    x[91]     c3        539
    x[91]     c4        825
    x[91]     c5        902
    x[91]     c6        132
    x[91]     c7        745
    x[91]     c8        784
    x[91]     c9        472
    x[91]     c10       878
    x[91]     c11       835
    x[91]     c1        629
    x[91]     OBJ       -852
    x[92]     c2        792
    x[92]     c3        218
    x[92]     c4        421
    x[92]     c5        133
    x[92]     c6        19
    x[92]     c7        78
    x[92]     c8        596
    x[92]     c9        742
    x[92]     c10       909
    x[92]     c11       39
    x[92]     c1        510
    x[92]     OBJ       -672
    x[93]     c2        953
    x[93]     c3        589
    x[93]     c4        828
    x[93]     c5        820
    x[93]     c6        989
    x[93]     c7        409
    x[93]     c8        728
    x[93]     c9        823
    x[93]     c10       5
    x[93]     c11       317
    x[93]     c1        103
    x[93]     OBJ       -1464
    x[94]     c2        384
    x[94]     c3        345
    x[94]     c4        412
    x[94]     c5        532
    x[94]     c6        272
    x[94]     c7        482
    x[94]     c8        192
    x[94]     c9        588
    x[94]     c10       180
    x[94]     c11       298
    x[94]     c1        788
    x[94]     OBJ       -457
    x[95]     c2        80
    x[95]     c3        549
    x[95]     c4        191
    x[95]     c5        406
    x[95]     c6        116
    x[95]     c7        323
    x[95]     c8        727
    x[95]     c9        229
    x[95]     c10       875
    x[95]     c11       748
    x[95]     c1        73
    x[95]     OBJ       -1129
    x[96]     c2        741
    x[96]     c3        365
    x[96]     c4        524
    x[96]     c5        275
    x[96]     c6        694
    x[96]     c7        754
    x[96]     c8        644
    x[96]     c9        46
    x[96]     c10       241
    x[96]     c11       218
    x[96]     c1        379
    x[96]     OBJ       -985
    x[97]     c2        394
    x[97]     c3        740
    x[97]     c4        998
    x[97]     c5        79
    x[97]     c6        824
    x[97]     c7        52
    x[97]     c8        74
    x[97]     c9        627
    x[97]     c10       419
    x[97]     c11       9
    x[97]     c1        573
    x[97]     OBJ       -689
    x[98]     c2        1000
    x[98]     c3        598
    x[98]     c4        691
    x[98]     c5        364
    x[98]     c6        817
    x[98]     c7        943
    x[98]     c8        542
    x[98]     c9        393
    x[98]     c10       768
    x[98]     c11       366
    x[98]     c1        783
    x[98]     OBJ       -823
    x[99]     c2        70
    x[99]     c3        32
    x[99]     c4        50
    x[99]     c5        20
    x[99]     c6        238
    x[99]     c7        42
    x[99]     c8        771
    x[99]     c9        723
    x[99]     c10       983
    x[99]     c11       755
    x[99]     c1        310
    x[99]     OBJ       -922
    x[100]    c2        869
    x[100]    c3        387
    x[100]    c4        609
    x[100]    c5        188
    x[100]    c6        251
    x[100]    c7        14
    x[100]    c8        561
    x[100]    c9        789
    x[100]    c10       179
    x[100]    c11       745
    x[100]    c1        38
    x[100]    OBJ       -1323
RHS
    rhs       c2        25125
    rhs       c3        28058
    rhs       c4        25836
    rhs       c5        25946
    rhs       c6        24539
    rhs       c7        28051
    rhs       c8        24767
    rhs       c9        26048
    rhs       c10       26101
    rhs       c11       24552
    rhs       c1        2567
RANGES
BOUNDS
 LO bounds    ss[1]     0
 PL bounds    ss[1]
 MI bounds    s[1]
 UP bounds    s[1]      0
 MI bounds    s[2]
 UP bounds    s[2]      0
 MI bounds    s[3]
 UP bounds    s[3]      0
 MI bounds    s[4]
 UP bounds    s[4]      0
 MI bounds    s[5]
 UP bounds    s[5]      0
 MI bounds    s[6]
 UP bounds    s[6]      0
 MI bounds    s[7]
 UP bounds    s[7]      0
 MI bounds    s[8]
 UP bounds    s[8]      0
 MI bounds    s[9]
 UP bounds    s[9]      0
 MI bounds    s[10]
 UP bounds    s[10]     0
 BV bounds    x[1]
 BV bounds    x[2]
 BV bounds    x[3]
 BV bounds    x[4]
 BV bounds    x[5]
 BV bounds    x[6]
 BV bounds    x[7]
 BV bounds    x[8]
 BV bounds    x[9]
 BV bounds    x[10]
 BV bounds    x[11]
 BV bounds    x[12]
 BV bounds    x[13]
 BV bounds    x[14]
 BV bounds    x[15]
 BV bounds    x[16]
 BV bounds    x[17]
 BV bounds    x[18]
 BV bounds    x[19]
 BV bounds    x[20]
 BV bounds    x[21]
 BV bounds    x[22]
 BV bounds    x[23]
 BV bounds    x[24]
 BV bounds    x[25]
 BV bounds    x[26]
 BV bounds    x[27]
 BV bounds    x[28]
 BV bounds    x[29]
 BV bounds    x[30]
 BV bounds    x[31]
 BV bounds    x[32]
 BV bounds    x[33]
 BV bounds    x[34]
 BV bounds    x[35]
 BV bounds    x[36]
 BV bounds    x[37]
 BV bounds    x[38]
 BV bounds    x[39]
 BV bounds    x[40]
 BV bounds    x[41]
 BV bounds    x[42]
 BV bounds    x[43]
 BV bounds    x[44]
 BV bounds    x[45]
 BV bounds    x[46]
 BV bounds    x[47]
 BV bounds    x[48]
 BV bounds    x[49]
 BV bounds    x[50]
 BV bounds    x[51]
 BV bounds    x[52]
 BV bounds    x[53]
 BV bounds    x[54]
 BV bounds    x[55]
 BV bounds    x[56]
 BV bounds    x[57]
 BV bounds    x[58]
 BV bounds    x[59]
 BV bounds    x[60]
 BV bounds    x[61]
 BV bounds    x[62]
 BV bounds    x[63]
 BV bounds    x[64]
 BV bounds    x[65]
 BV bounds    x[66]
 BV bounds    x[67]
 BV bounds    x[68]
 BV bounds    x[69]
 BV bounds    x[70]
 BV bounds    x[71]
 BV bounds    x[72]
 BV bounds    x[73]
 BV bounds    x[74]
 BV bounds    x[75]
 BV bounds    x[76]
 BV bounds    x[77]
 BV bounds    x[78]
 BV bounds    x[79]
 BV bounds    x[80]
 BV bounds    x[81]
 BV bounds    x[82]
 BV bounds    x[83]
 BV bounds    x[84]
 BV bounds    x[85]
 BV bounds    x[86]
 BV bounds    x[87]
 BV bounds    x[88]
 BV bounds    x[89]
 BV bounds    x[90]
 BV bounds    x[91]
 BV bounds    x[92]
 BV bounds    x[93]
 BV bounds    x[94]
 BV bounds    x[95]
 BV bounds    x[96]
 BV bounds    x[97]
 BV bounds    x[98]
 BV bounds    x[99]
 BV bounds    x[100]
ENDATA
